\ Model subproblem
\ LP format - for model browsing. Use MPS format to capture full model detail.
Minimize
  102 C0 + 435 C1 + 860 C2 + 270 C3 + 106 C4 + 71 C5 + 700 C6 + 20 C7
   + 614 C8 + 121 C9 + 466 C10 + 214 C11 + 330 C12 + 458 C13 + 87 C14
   + 372 C15 + 99 C16 + 871 C17 + 663 C18 + 130 C19 + 661 C20 + 308 C21
   + 769 C22 + 343 C23 + 491 C24 + 413 C25 + 805 C26 + 385 C27 + 191 C28
   + 955 C29 + 276 C30 + 160 C31 + 459 C32 + 313 C33 + 21 C34 + 252 C35
   + 747 C36 + 856 C37 + 560 C38 + 474 C39 + 58 C40 + 510 C41 + 681 C42
   + 475 C43 + 699 C44 + 975 C45 + 782 C46 + 189 C47 + 957 C48 + 686 C49
   + 957 C50 + 562 C51 + 875 C52 + 566 C53 + 243 C54 + 831 C55 + 504 C56
   + 130 C57 + 484 C58 + 818 C59 + 646 C60 + 20 C61 + 840 C62 + 166 C63
   + 273 C64 + 387 C65 + 600 C66 + 315 C67 + 13 C68 + 241 C69 + 776 C70
   + 345 C71 + 564 C72 + 897 C73 + 339 C74 + 91 C75 + 366 C76 + 955 C77
   + 454 C78 + 427 C79 + 508 C80 + 775 C81 + 942 C82 + 34 C83 + 205 C84
   + 80 C85 + 931 C86 + 561 C87 + 871 C88 + 387 C89 + C90 + 389 C91
   + 565 C92 + 105 C93 + 771 C94 + 821 C95 + 476 C96 + 702 C97 + 401 C98
   + 729 C99 + 555 C100 + 161 C101 + 201 C102 + 957 C103 + 995 C104
   + 269 C105 + 862 C106 + 815 C107 + 270 C108 + 455 C109 + 461 C110
   + 726 C111 + 251 C112 + 701 C113 + 295 C114 + 724 C115 + 719 C116
   + 748 C117 + 337 C118 + 878 C119 + 52 C120 + 791 C121 + 921 C122
   + 216 C123 + 763 C124 + 187 C125 + 379 C126 + 492 C127 + 40 C128
   + 156 C129 + 14 C130 + 812 C131 + 64 C132 + 856 C133 + 838 C134
   + 520 C135 + 343 C136 + 128 C137 + 647 C138 + 471 C139 + 62 C140
   + 138 C141 + 498 C142 + 592 C143 + 391 C144 + 674 C145 + 418 C146
   + 288 C147 + 378 C148 + 772 C149 + 489 C150 + 230 C151 + 40 C152
   + 27 C153 + 134 C154 + 200 C155 + 839 C156 + 779 C157 + 929 C158
   + 32 C159 + 47 C160 + 502 C161 + 406 C162 + 573 C163 + 727 C164
   + 804 C165 + 98 C166 + 683 C167 + 871 C168 + 725 C169 + 986 C170
   + 546 C171 + 960 C172 + 738 C173 + 612 C174 + 942 C175 + 461 C176
   + 642 C177 + 768 C178 + 4 C179 + 217 C180 + 502 C181 + 766 C182
   + 397 C183 + 870 C184 + 794 C185 + 392 C186 + 206 C187 + 14 C188
   + 857 C189 + 553 C190 + 891 C191 + 460 C192 + 690 C193 + 574 C194
   + 863 C195 + 742 C196 + 240 C197 + 563 C198 + 95 C199 + 899 C200
   + 733 C201 + 484 C202 + 406 C203 + 230 C204 + 748 C205 + 654 C206
   + 170 C207 + 540 C208 + 35 C209 + 524 C210 + 159 C211 + 838 C212
   + 698 C213 + 242 C214 + 85 C215 + 795 C216 + 577 C217 + 681 C218
   + 556 C219 + 573 C220 + 952 C221 + 645 C222 + 795 C223 + 27 C224
   + 619 C225 + 555 C226 + 339 C227 + 797 C228 + 957 C229 + 330 C230
   + 639 C231 + 505 C232 + 347 C233 + 472 C234 + 230 C235 + 189 C236
   + 224 C237 + 384 C238 + 376 C239 + 282 C240 + 957 C241 + 632 C242
   + 627 C243 + 972 C244 + 744 C245 + 258 C246 + 358 C247 + 709 C248
   + 455 C249 + 410 C250 + 648 C251 + 317 C252 + 676 C253 + 224 C254
   + 818 C255 + 233 C256 + 683 C257 + 663 C258 + 974 C259 + 826 C260
   + 373 C261 + 671 C262 + 607 C263 + 471 C264 + 232 C265 + 691 C266
   + 112 C267 + 829 C268 + 496 C269 + 441 C270 + 563 C271 + 267 C272
   + 509 C273 + 806 C274 + 385 C275 + 386 C276 + 112 C277 + 612 C278
   + 624 C279 + 951 C280 + 80 C281 + 698 C282 + 112 C283 + C284 + 641 C285
   + 219 C286 + 565 C287 + 854 C288 + 996 C289 + 735 C290 + 224 C291
   + 384 C292 + 402 C293 + 637 C294 + 129 C295 + 52 C296 + 683 C297
   + 729 C298 + 671 C299 + 709 C300 + 415 C301 + 246 C302 + 835 C303
   + 438 C304 + 202 C305 + 183 C306 + 122 C307 + 400 C308 + 766 C309
   + 293 C310 + 279 C311 + 836 C312 + 883 C313 + 609 C314 + 197 C315
   + 981 C316 + 906 C317 + 510 C318 + 751 C319 + 143 C320 + 608 C321
   + 200 C322 + 123 C323 + 186 C324 + 325 C325 + 463 C326 + 348 C327
   + 770 C328 + 659 C329 + 763 C330 + 954 C331 + 931 C332 + 402 C333
   + 345 C334 + 962 C335 + 510 C336 + 146 C337 + 147 C338 + 863 C339
   + 710 C340 + 819 C341 + 488 C342 + 928 C343 + 935 C344 + 639 C345
   + 550 C346 + 337 C347 + 871 C348 + 640 C349 + 778 C350 + 987 C351
   + 952 C352 + 472 C353 + 945 C354 + 150 C355 + 414 C356 + 989 C357
   + 297 C358 + 610 C359 + 262 C360 + 763 C361 + 143 C362 + 345 C363
   + 623 C364 + 571 C365 + 880 C366 + C367 + 896 C368 + 303 C369 + 253 C370
   + 651 C371 + 452 C372 + 36 C373 + 159 C374 + 8 C375 + 232 C376 + 98 C377
   + 658 C378 + 815 C379 + 207 C380 + 130 C381 + 403 C382 + 151 C383
   + 53 C384 + 119 C385 + 672 C386 + 919 C387 + 627 C388 + 586 C389
   + 624 C390 + 967 C391 + 419 C392 + 421 C393 + 103 C394 + 851 C395
   + 253 C396 + 226 C397 + 111 C398 + 509 C399 + 472 C400 + 98 C401
   + 152 C402 + 860 C403 + 913 C404 + 895 C405 + 877 C406 + 337 C407
   + 705 C408 + 821 C409 + 162 C410 + 719 C411 + 956 C412 + 680 C413
   + 995 C414 + 160 C415 + 579 C416 + 800 C417 + 397 C418 + 276 C419
   + 815 C420 + 915 C421 + 503 C422 + 895 C423 + 391 C424 + 134 C425
   + 194 C426 + 400 C427 + 639 C428 + 32 C429 + 687 C430 + 459 C431
   + 954 C432 + 882 C433 + 469 C434 + 374 C435 + 21 C436 + 749 C437
   + 669 C438 + 37 C439 + 229 C440 + 364 C441 + 562 C442 + 437 C443
   + 775 C444 + 282 C445 + 26 C446 + 225 C447 + 276 C448 + 797 C449
   + 608 C450 + 283 C451 + 878 C452 + 959 C453 + 480 C454 + 452 C455
   + 828 C456 + 815 C457 + 658 C458 + 515 C459 + 546 C460 + 191 C461
   + 48 C462 + 511 C463 + 16 C464 + 171 C465 + 219 C466 + 157 C467
   + 476 C468 + 45 C469 + 372 C470 + 517 C471 + 98 C472 + 891 C473
   + 744 C474 + 36 C475 + 279 C476 + 348 C477 + 496 C478 + 301 C479
   + 180 C480 + 606 C481 + 98 C482 + 699 C483 + 992 C484 + 115 C485
   + 190 C486 + 252 C487 + 980 C488 + 927 C489 + 982 C490 + 160 C491
   + 255 C492 + 322 C493 + 127 C494 + 17 C495 + 792 C496 + 734 C497
   + 565 C498 + 569 C499 + 322 C500 + 871 C501 + 685 C502 + 791 C503
   + 625 C504 + 287 C505 + 942 C506 + 853 C507 + 662 C508 + 961 C509
   + 638 C510 + 154 C511 + 489 C512 + 385 C513 + 985 C514 + 784 C515
   + 103 C516 + 928 C517 + 392 C518 + 810 C519 + 245 C520 + 175 C521
   + 38 C522 + 476 C523 + 681 C524 + 758 C525 + 537 C526 + 866 C527
   + 817 C528 + 920 C529 + 407 C530 + 524 C531 + 827 C532 + 505 C533
   + 902 C534 + 824 C535 + 35 C536 + 684 C537 + 19 C538 + 320 C539
   + 775 C540 + 511 C541 + 399 C542 + 653 C543 + 971 C544 + 882 C545
   + 470 C546 + 142 C547 + 91 C548 + 353 C549 + 833 C550 + 799 C551
   + 726 C552 + 958 C553 + 853 C554 + 50 C555 + 664 C556 + 697 C557
   + 574 C558 + 189 C559 + 124 C560 + 149 C561 + 313 C562 + 569 C563
   + 341 C564 + 304 C565 + 691 C566 + 681 C567 + 837 C568 + 782 C569
   + 53 C570 + 443 C571 + 612 C572 + 992 C573 + 263 C574 + 52 C575
   + 571 C576 + 619 C577 + 4 C578 + 102 C579 + 195 C580 + 773 C581
   + 876 C582 + 991 C583 + 883 C584 + 349 C585 + 46 C586 + 866 C587
   + 822 C588 + 935 C589 + 819 C590 + 655 C591 + 268 C592 + 369 C593
   + 635 C594 + 105 C595 + 669 C596 + 658 C597 + 656 C598 + 119 C599
   + 830 C600 + 786 C601 + 603 C602 + 57 C603 + 950 C604 + 345 C605
   + 740 C606 + 473 C607 + 116 C608 + 829 C609 + 790 C610 + 126 C611
   + 392 C612 + 907 C613 + 640 C614 + 57 C615 + 633 C616 + 512 C617
   + 750 C618 + 801 C619 + 95 C620 + 637 C621 + 117 C622 + 559 C623
   + 600 C624 + 487 C625 + 236 C626 + 884 C627 + 896 C628 + 271 C629
   + 188 C630 + 998 C631 + 703 C632 + 446 C633 + 580 C634 + 789 C635
   + 860 C636 + 246 C637 + 962 C638 + 75 C639 + 153 C640 + 655 C641
   + 434 C642 + 996 C643 + 85 C644 + 696 C645 + 284 C646 + 973 C647
   + 219 C648 + 68 C649 + 46 C650 + 93 C651 + 749 C652 + 957 C653
   + 452 C654 + 203 C655 + 911 C656 + 217 C657 + 473 C658 + 431 C659
   + 340 C660 + 550 C661 + 611 C662 + 288 C663 + 253 C664 + 733 C665
   + 356 C666 + 22 C667 + 761 C668 + 521 C669 + 757 C670 + 836 C671
   + 99 C672 + 801 C673 + 179 C674 + 222 C675 + 905 C676 + 761 C677
   + 658 C678 + 441 C679 + 607 C680 + 768 C681 + 324 C682 + 515 C683
   + 15 C684 + 791 C685 + 335 C686 + 758 C687 + 257 C688 + 496 C689
   + 987 C690 + 895 C691 + 159 C692 + 474 C693 + 851 C694 + 663 C695
   + 907 C696 + 689 C697 + 674 C698 + 379 C699 + 544 C700 + 928 C701
   + 956 C702 + 690 C703 + 426 C704 + 612 C705 + 267 C706 + 834 C707
   + 576 C708 + 416 C709 + 167 C710 + 841 C711 + 42 C712 + 555 C713
   + 284 C714 + 396 C715 + 11 C716 + 606 C717 + 301 C718 + 897 C719
   + 252 C720 + 498 C721 + 753 C722 + 34 C723 + 726 C724 + 848 C725
   + 89 C726 + 775 C727 + 604 C728 + 921 C729 + 969 C730 + 601 C731
   + 417 C732 + 114 C733 + 616 C734 + 902 C735 + 195 C736 + 825 C737
   + 500 C738 + 625 C739 + 492 C740 + 74 C741 + 412 C742 + 375 C743
   + 419 C744 + 728 C745 + 276 C746 + 760 C747 + 675 C748 + 393 C749
   + 868 C750 + 456 C751 + 919 C752 + 191 C753 + 738 C754 + 688 C755
   + 98 C756 + 547 C757 + 977 C758 + 998 C759 + 95 C760 + 663 C761
   + 662 C762 + 189 C763 + 735 C764 + 36 C765 + 779 C766 + 368 C767
   + 694 C768 + 524 C769 + 278 C770 + 216 C771 + 866 C772 + 872 C773
   + 797 C774 + 272 C775 + 880 C776 + 61 C777 + 595 C778 + 879 C779
   + 728 C780 + 341 C781 + 396 C782 + 698 C783 + 18 C784 + 176 C785
   + 611 C786 + 395 C787 + 444 C788 + 232 C789 + 914 C790 + 75 C791
   + 264 C792 + 454 C793 + 795 C794 + 717 C795 + 734 C796 + 383 C797
   + 563 C798 + 850 C799 + 505 C800 + 366 C801 + 143 C802 + 884 C803
   + 68 C804 + 98 C805 + 395 C806 + 24 C807 + 947 C808 + 890 C809
   + 468 C810 + 483 C811 + 564 C812 + 150 C813 + 143 C814 + 568 C815
   + 38 C816 + 108 C817 + 692 C818 + 41 C819 + 185 C820 + 934 C821
   + 397 C822 + 222 C823 + 633 C824 + 132 C825 + 162 C826 + 214 C827
   + 732 C828 + 234 C829 + 842 C830 + 657 C831 + 750 C832 + 587 C833
   + 8 C834 + 73 C835 + 953 C836 + 491 C837 + 912 C838 + 252 C839
   + 229 C840 + 518 C841 + 173 C842 + 652 C843 + 167 C844 + 169 C845
   + 392 C846 + 945 C847 + 794 C848 + 633 C849 + 193 C850 + 516 C851
   + 28 C852 + 164 C853 + 421 C854 + 338 C855 + 647 C856 + 495 C857
   + 364 C858 + 832 C859 + 341 C860 + 499 C861 + 656 C862 + 510 C863
   + 326 C864 + 216 C865 + 300 C866 + 131 C867 + 803 C868 + 69 C869
   + 251 C870 + 414 C871 + 786 C872 + 444 C873 + 875 C874 + 181 C875
   + 166 C876 + 90 C877 + 713 C878 + 857 C879 + 530 C880 + 38 C881
   + 125 C882 + 450 C883 + 172 C884 + 652 C885 + 753 C886 + 219 C887
   + 637 C888 + 57 C889 + 659 C890 + 475 C891 + 455 C892 + 828 C893
   + 894 C894 + 360 C895 + 934 C896 + 386 C898 + 972 C899 + 347 C900
   + 189 C901 + 504 C902 + 190 C903 + 507 C904 + 368 C905 + 408 C906
   + 823 C907 + 928 C908 + 933 C909 + 116 C910 + 133 C911 + 57 C912
   + 555 C913 + 684 C914 + 671 C915 + 172 C916 + 828 C917 + 814 C918
   + 148 C919 + 79 C920 + 885 C921 + 212 C922 + 202 C923 + 763 C924
   + 228 C925 + 675 C926 + 226 C927 + 658 C928 + 531 C929 + 440 C930
   + 401 C931 + 46 C932 + 232 C933 + 304 C934 + 525 C935 + 142 C936
   + 414 C937 + 512 C938 + 372 C939 + 565 C940 + 885 C941 + 258 C942
   + 655 C943 + 470 C944 + 952 C945 + 970 C946 + 11 C947 + 329 C948
   + 735 C949 + 783 C950 + 967 C951 + 357 C952 + 971 C953 + 407 C954
   + 667 C955 + 372 C956 + 7 C957 + 121 C958 + 347 C959 + 675 C960
   + 89 C961 + 647 C962 + 697 C963 + 315 C964 + 177 C965 + 539 C966
   + 731 C967 + 868 C968 + 40 C969 + 739 C970 + 703 C971 + 922 C972
   + 501 C973 + 958 C974 + 144 C975 + 200 C976 + 928 C977 + 723 C978
   + 460 C979 + 731 C980 + 751 C981 + 924 C982 + 908 C983 + 557 C984
   + 546 C985 + 252 C986 + 389 C987 + 593 C988 + 882 C989 + 255 C990
   + 708 C991 + 814 C992 + 920 C993 + 449 C994 + 9 C995 + 823 C996
   + 797 C997 + 241 C998 + 250 C999 + 10107 Constant
Subject To
 R0: C0 + C1 + C2 + C3 + C4 + C5 + C6 + C7 + C8 + C9 = 1
 R1: C10 + C11 + C12 + C13 + C14 + C15 + C16 + C17 + C18 + C19 = 1
 R2: C20 + C21 + C22 + C23 + C24 + C25 + C26 + C27 + C28 + C29 = 1
 R3: C30 + C31 + C32 + C33 + C34 + C35 + C36 + C37 + C38 + C39 = 1
 R4: C40 + C41 + C42 + C43 + C44 + C45 + C46 + C47 + C48 + C49 = 1
 R5: C50 + C51 + C52 + C53 + C54 + C55 + C56 + C57 + C58 + C59 = 1
 R6: C60 + C61 + C62 + C63 + C64 + C65 + C66 + C67 + C68 + C69 = 1
 R7: C70 + C71 + C72 + C73 + C74 + C75 + C76 + C77 + C78 + C79 = 1
 R8: C80 + C81 + C82 + C83 + C84 + C85 + C86 + C87 + C88 + C89 = 1
 R9: C90 + C91 + C92 + C93 + C94 + C95 + C96 + C97 + C98 + C99 = 1
 R10: C100 + C101 + C102 + C103 + C104 + C105 + C106 + C107 + C108 + C109
   = 1
 R11: C110 + C111 + C112 + C113 + C114 + C115 + C116 + C117 + C118 + C119
   = 1
 R12: C120 + C121 + C122 + C123 + C124 + C125 + C126 + C127 + C128 + C129
   = 1
 R13: C130 + C131 + C132 + C133 + C134 + C135 + C136 + C137 + C138 + C139
   = 1
 R14: C140 + C141 + C142 + C143 + C144 + C145 + C146 + C147 + C148 + C149
   = 1
 R15: C150 + C151 + C152 + C153 + C154 + C155 + C156 + C157 + C158 + C159
   = 1
 R16: C160 + C161 + C162 + C163 + C164 + C165 + C166 + C167 + C168 + C169
   = 1
 R17: C170 + C171 + C172 + C173 + C174 + C175 + C176 + C177 + C178 + C179
   = 1
 R18: C180 + C181 + C182 + C183 + C184 + C185 + C186 + C187 + C188 + C189
   = 1
 R19: C190 + C191 + C192 + C193 + C194 + C195 + C196 + C197 + C198 + C199
   = 1
 R20: C200 + C201 + C202 + C203 + C204 + C205 + C206 + C207 + C208 + C209
   = 1
 R21: C210 + C211 + C212 + C213 + C214 + C215 + C216 + C217 + C218 + C219
   = 1
 R22: C220 + C221 + C222 + C223 + C224 + C225 + C226 + C227 + C228 + C229
   = 1
 R23: C230 + C231 + C232 + C233 + C234 + C235 + C236 + C237 + C238 + C239
   = 1
 R24: C240 + C241 + C242 + C243 + C244 + C245 + C246 + C247 + C248 + C249
   = 1
 R25: C250 + C251 + C252 + C253 + C254 + C255 + C256 + C257 + C258 + C259
   = 1
 R26: C260 + C261 + C262 + C263 + C264 + C265 + C266 + C267 + C268 + C269
   = 1
 R27: C270 + C271 + C272 + C273 + C274 + C275 + C276 + C277 + C278 + C279
   = 1
 R28: C280 + C281 + C282 + C283 + C284 + C285 + C286 + C287 + C288 + C289
   = 1
 R29: C290 + C291 + C292 + C293 + C294 + C295 + C296 + C297 + C298 + C299
   = 1
 R30: C300 + C301 + C302 + C303 + C304 + C305 + C306 + C307 + C308 + C309
   = 1
 R31: C310 + C311 + C312 + C313 + C314 + C315 + C316 + C317 + C318 + C319
   = 1
 R32: C320 + C321 + C322 + C323 + C324 + C325 + C326 + C327 + C328 + C329
   = 1
 R33: C330 + C331 + C332 + C333 + C334 + C335 + C336 + C337 + C338 + C339
   = 1
 R34: C340 + C341 + C342 + C343 + C344 + C345 + C346 + C347 + C348 + C349
   = 1
 R35: C350 + C351 + C352 + C353 + C354 + C355 + C356 + C357 + C358 + C359
   = 1
 R36: C360 + C361 + C362 + C363 + C364 + C365 + C366 + C367 + C368 + C369
   = 1
 R37: C370 + C371 + C372 + C373 + C374 + C375 + C376 + C377 + C378 + C379
   = 1
 R38: C380 + C381 + C382 + C383 + C384 + C385 + C386 + C387 + C388 + C389
   = 1
 R39: C390 + C391 + C392 + C393 + C394 + C395 + C396 + C397 + C398 + C399
   = 1
 R40: C400 + C401 + C402 + C403 + C404 + C405 + C406 + C407 + C408 + C409
   = 1
 R41: C410 + C411 + C412 + C413 + C414 + C415 + C416 + C417 + C418 + C419
   = 1
 R42: C420 + C421 + C422 + C423 + C424 + C425 + C426 + C427 + C428 + C429
   = 1
 R43: C430 + C431 + C432 + C433 + C434 + C435 + C436 + C437 + C438 + C439
   = 1
 R44: C440 + C441 + C442 + C443 + C444 + C445 + C446 + C447 + C448 + C449
   = 1
 R45: C450 + C451 + C452 + C453 + C454 + C455 + C456 + C457 + C458 + C459
   = 1
 R46: C460 + C461 + C462 + C463 + C464 + C465 + C466 + C467 + C468 + C469
   = 1
 R47: C470 + C471 + C472 + C473 + C474 + C475 + C476 + C477 + C478 + C479
   = 1
 R48: C480 + C481 + C482 + C483 + C484 + C485 + C486 + C487 + C488 + C489
   = 1
 R49: C490 + C491 + C492 + C493 + C494 + C495 + C496 + C497 + C498 + C499
   = 1
 R50: C500 + C501 + C502 + C503 + C504 + C505 + C506 + C507 + C508 + C509
   = 1
 R51: C510 + C511 + C512 + C513 + C514 + C515 + C516 + C517 + C518 + C519
   = 1
 R52: C520 + C521 + C522 + C523 + C524 + C525 + C526 + C527 + C528 + C529
   = 1
 R53: C530 + C531 + C532 + C533 + C534 + C535 + C536 + C537 + C538 + C539
   = 1
 R54: C540 + C541 + C542 + C543 + C544 + C545 + C546 + C547 + C548 + C549
   = 1
 R55: C550 + C551 + C552 + C553 + C554 + C555 + C556 + C557 + C558 + C559
   = 1
 R56: C560 + C561 + C562 + C563 + C564 + C565 + C566 + C567 + C568 + C569
   = 1
 R57: C570 + C571 + C572 + C573 + C574 + C575 + C576 + C577 + C578 + C579
   = 1
 R58: C580 + C581 + C582 + C583 + C584 + C585 + C586 + C587 + C588 + C589
   = 1
 R59: C590 + C591 + C592 + C593 + C594 + C595 + C596 + C597 + C598 + C599
   = 1
 R60: C600 + C601 + C602 + C603 + C604 + C605 + C606 + C607 + C608 + C609
   = 1
 R61: C610 + C611 + C612 + C613 + C614 + C615 + C616 + C617 + C618 + C619
   = 1
 R62: C620 + C621 + C622 + C623 + C624 + C625 + C626 + C627 + C628 + C629
   = 1
 R63: C630 + C631 + C632 + C633 + C634 + C635 + C636 + C637 + C638 + C639
   = 1
 R64: C640 + C641 + C642 + C643 + C644 + C645 + C646 + C647 + C648 + C649
   = 1
 R65: C650 + C651 + C652 + C653 + C654 + C655 + C656 + C657 + C658 + C659
   = 1
 R66: C660 + C661 + C662 + C663 + C664 + C665 + C666 + C667 + C668 + C669
   = 1
 R67: C670 + C671 + C672 + C673 + C674 + C675 + C676 + C677 + C678 + C679
   = 1
 R68: C680 + C681 + C682 + C683 + C684 + C685 + C686 + C687 + C688 + C689
   = 1
 R69: C690 + C691 + C692 + C693 + C694 + C695 + C696 + C697 + C698 + C699
   = 1
 R70: C700 + C701 + C702 + C703 + C704 + C705 + C706 + C707 + C708 + C709
   = 1
 R71: C710 + C711 + C712 + C713 + C714 + C715 + C716 + C717 + C718 + C719
   = 1
 R72: C720 + C721 + C722 + C723 + C724 + C725 + C726 + C727 + C728 + C729
   = 1
 R73: C730 + C731 + C732 + C733 + C734 + C735 + C736 + C737 + C738 + C739
   = 1
 R74: C740 + C741 + C742 + C743 + C744 + C745 + C746 + C747 + C748 + C749
   = 1
 R75: C750 + C751 + C752 + C753 + C754 + C755 + C756 + C757 + C758 + C759
   = 1
 R76: C760 + C761 + C762 + C763 + C764 + C765 + C766 + C767 + C768 + C769
   = 1
 R77: C770 + C771 + C772 + C773 + C774 + C775 + C776 + C777 + C778 + C779
   = 1
 R78: C780 + C781 + C782 + C783 + C784 + C785 + C786 + C787 + C788 + C789
   = 1
 R79: C790 + C791 + C792 + C793 + C794 + C795 + C796 + C797 + C798 + C799
   = 1
 R80: C800 + C801 + C802 + C803 + C804 + C805 + C806 + C807 + C808 + C809
   = 1
 R81: C810 + C811 + C812 + C813 + C814 + C815 + C816 + C817 + C818 + C819
   = 1
 R82: C820 + C821 + C822 + C823 + C824 + C825 + C826 + C827 + C828 + C829
   = 1
 R83: C830 + C831 + C832 + C833 + C834 + C835 + C836 + C837 + C838 + C839
   = 1
 R84: C840 + C841 + C842 + C843 + C844 + C845 + C846 + C847 + C848 + C849
   = 1
 R85: C850 + C851 + C852 + C853 + C854 + C855 + C856 + C857 + C858 + C859
   = 1
 R86: C860 + C861 + C862 + C863 + C864 + C865 + C866 + C867 + C868 + C869
   = 1
 R87: C870 + C871 + C872 + C873 + C874 + C875 + C876 + C877 + C878 + C879
   = 1
 R88: C880 + C881 + C882 + C883 + C884 + C885 + C886 + C887 + C888 + C889
   = 1
 R89: C890 + C891 + C892 + C893 + C894 + C895 + C896 + C897 + C898 + C899
   = 1
 R90: C900 + C901 + C902 + C903 + C904 + C905 + C906 + C907 + C908 + C909
   = 1
 R91: C910 + C911 + C912 + C913 + C914 + C915 + C916 + C917 + C918 + C919
   = 1
 R92: C920 + C921 + C922 + C923 + C924 + C925 + C926 + C927 + C928 + C929
   = 1
 R93: C930 + C931 + C932 + C933 + C934 + C935 + C936 + C937 + C938 + C939
   = 1
 R94: C940 + C941 + C942 + C943 + C944 + C945 + C946 + C947 + C948 + C949
   = 1
 R95: C950 + C951 + C952 + C953 + C954 + C955 + C956 + C957 + C958 + C959
   = 1
 R96: C960 + C961 + C962 + C963 + C964 + C965 + C966 + C967 + C968 + C969
   = 1
 R97: C970 + C971 + C972 + C973 + C974 + C975 + C976 + C977 + C978 + C979
   = 1
 R98: C980 + C981 + C982 + C983 + C984 + C985 + C986 + C987 + C988 + C989
   = 1
 R99: C990 + C991 + C992 + C993 + C994 + C995 + C996 + C997 + C998 + C999
   = 1
 R100: C0 <= 0
 R101: C1 <= 0
 R102: C2 <= 1
 R103: C3 <= 0
 R104: C4 <= 0
 R105: C5 <= 1
 R106: C6 <= 1
 R107: C7 <= 1
 R108: C8 <= 0
 R109: C9 <= 0
 R110: C10 <= 0
 R111: C11 <= 0
 R112: C12 <= 1
 R113: C13 <= 0
 R114: C14 <= 0
 R115: C15 <= 1
 R116: C16 <= 1
 R117: C17 <= 1
 R118: C18 <= 0
 R119: C19 <= 0
 R120: C20 <= 0
 R121: C21 <= 0
 R122: C22 <= 1
 R123: C23 <= 0
 R124: C24 <= 0
 R125: C25 <= 1
 R126: C26 <= 1
 R127: C27 <= 1
 R128: C28 <= 0
 R129: C29 <= 0
 R130: C30 <= 0
 R131: C31 <= 0
 R132: C32 <= 1
 R133: C33 <= 0
 R134: C34 <= 0
 R135: C35 <= 1
 R136: C36 <= 1
 R137: C37 <= 1
 R138: C38 <= 0
 R139: C39 <= 0
 R140: C40 <= 0
 R141: C41 <= 0
 R142: C42 <= 1
 R143: C43 <= 0
 R144: C44 <= 0
 R145: C45 <= 1
 R146: C46 <= 1
 R147: C47 <= 1
 R148: C48 <= 0
 R149: C49 <= 0
 R150: C50 <= 0
 R151: C51 <= 0
 R152: C52 <= 1
 R153: C53 <= 0
 R154: C54 <= 0
 R155: C55 <= 1
 R156: C56 <= 1
 R157: C57 <= 1
 R158: C58 <= 0
 R159: C59 <= 0
 R160: C60 <= 0
 R161: C61 <= 0
 R162: C62 <= 1
 R163: C63 <= 0
 R164: C64 <= 0
 R165: C65 <= 1
 R166: C66 <= 1
 R167: C67 <= 1
 R168: C68 <= 0
 R169: C69 <= 0
 R170: C70 <= 0
 R171: C71 <= 0
 R172: C72 <= 1
 R173: C73 <= 0
 R174: C74 <= 0
 R175: C75 <= 1
 R176: C76 <= 1
 R177: C77 <= 1
 R178: C78 <= 0
 R179: C79 <= 0
 R180: C80 <= 0
 R181: C81 <= 0
 R182: C82 <= 1
 R183: C83 <= 0
 R184: C84 <= 0
 R185: C85 <= 1
 R186: C86 <= 1
 R187: C87 <= 1
 R188: C88 <= 0
 R189: C89 <= 0
 R190: C90 <= 0
 R191: C91 <= 0
 R192: C92 <= 1
 R193: C93 <= 0
 R194: C94 <= 0
 R195: C95 <= 1
 R196: C96 <= 1
 R197: C97 <= 1
 R198: C98 <= 0
 R199: C99 <= 0
 R200: C100 <= 0
 R201: C101 <= 0
 R202: C102 <= 1
 R203: C103 <= 0
 R204: C104 <= 0
 R205: C105 <= 1
 R206: C106 <= 1
 R207: C107 <= 1
 R208: C108 <= 0
 R209: C109 <= 0
 R210: C110 <= 0
 R211: C111 <= 0
 R212: C112 <= 1
 R213: C113 <= 0
 R214: C114 <= 0
 R215: C115 <= 1
 R216: C116 <= 1
 R217: C117 <= 1
 R218: C118 <= 0
 R219: C119 <= 0
 R220: C120 <= 0
 R221: C121 <= 0
 R222: C122 <= 1
 R223: C123 <= 0
 R224: C124 <= 0
 R225: C125 <= 1
 R226: C126 <= 1
 R227: C127 <= 1
 R228: C128 <= 0
 R229: C129 <= 0
 R230: C130 <= 0
 R231: C131 <= 0
 R232: C132 <= 1
 R233: C133 <= 0
 R234: C134 <= 0
 R235: C135 <= 1
 R236: C136 <= 1
 R237: C137 <= 1
 R238: C138 <= 0
 R239: C139 <= 0
 R240: C140 <= 0
 R241: C141 <= 0
 R242: C142 <= 1
 R243: C143 <= 0
 R244: C144 <= 0
 R245: C145 <= 1
 R246: C146 <= 1
 R247: C147 <= 1
 R248: C148 <= 0
 R249: C149 <= 0
 R250: C150 <= 0
 R251: C151 <= 0
 R252: C152 <= 1
 R253: C153 <= 0
 R254: C154 <= 0
 R255: C155 <= 1
 R256: C156 <= 1
 R257: C157 <= 1
 R258: C158 <= 0
 R259: C159 <= 0
 R260: C160 <= 0
 R261: C161 <= 0
 R262: C162 <= 1
 R263: C163 <= 0
 R264: C164 <= 0
 R265: C165 <= 1
 R266: C166 <= 1
 R267: C167 <= 1
 R268: C168 <= 0
 R269: C169 <= 0
 R270: C170 <= 0
 R271: C171 <= 0
 R272: C172 <= 1
 R273: C173 <= 0
 R274: C174 <= 0
 R275: C175 <= 1
 R276: C176 <= 1
 R277: C177 <= 1
 R278: C178 <= 0
 R279: C179 <= 0
 R280: C180 <= 0
 R281: C181 <= 0
 R282: C182 <= 1
 R283: C183 <= 0
 R284: C184 <= 0
 R285: C185 <= 1
 R286: C186 <= 1
 R287: C187 <= 1
 R288: C188 <= 0
 R289: C189 <= 0
 R290: C190 <= 0
 R291: C191 <= 0
 R292: C192 <= 1
 R293: C193 <= 0
 R294: C194 <= 0
 R295: C195 <= 1
 R296: C196 <= 1
 R297: C197 <= 1
 R298: C198 <= 0
 R299: C199 <= 0
 R300: C200 <= 0
 R301: C201 <= 0
 R302: C202 <= 1
 R303: C203 <= 0
 R304: C204 <= 0
 R305: C205 <= 1
 R306: C206 <= 1
 R307: C207 <= 1
 R308: C208 <= 0
 R309: C209 <= 0
 R310: C210 <= 0
 R311: C211 <= 0
 R312: C212 <= 1
 R313: C213 <= 0
 R314: C214 <= 0
 R315: C215 <= 1
 R316: C216 <= 1
 R317: C217 <= 1
 R318: C218 <= 0
 R319: C219 <= 0
 R320: C220 <= 0
 R321: C221 <= 0
 R322: C222 <= 1
 R323: C223 <= 0
 R324: C224 <= 0
 R325: C225 <= 1
 R326: C226 <= 1
 R327: C227 <= 1
 R328: C228 <= 0
 R329: C229 <= 0
 R330: C230 <= 0
 R331: C231 <= 0
 R332: C232 <= 1
 R333: C233 <= 0
 R334: C234 <= 0
 R335: C235 <= 1
 R336: C236 <= 1
 R337: C237 <= 1
 R338: C238 <= 0
 R339: C239 <= 0
 R340: C240 <= 0
 R341: C241 <= 0
 R342: C242 <= 1
 R343: C243 <= 0
 R344: C244 <= 0
 R345: C245 <= 1
 R346: C246 <= 1
 R347: C247 <= 1
 R348: C248 <= 0
 R349: C249 <= 0
 R350: C250 <= 0
 R351: C251 <= 0
 R352: C252 <= 1
 R353: C253 <= 0
 R354: C254 <= 0
 R355: C255 <= 1
 R356: C256 <= 1
 R357: C257 <= 1
 R358: C258 <= 0
 R359: C259 <= 0
 R360: C260 <= 0
 R361: C261 <= 0
 R362: C262 <= 1
 R363: C263 <= 0
 R364: C264 <= 0
 R365: C265 <= 1
 R366: C266 <= 1
 R367: C267 <= 1
 R368: C268 <= 0
 R369: C269 <= 0
 R370: C270 <= 0
 R371: C271 <= 0
 R372: C272 <= 1
 R373: C273 <= 0
 R374: C274 <= 0
 R375: C275 <= 1
 R376: C276 <= 1
 R377: C277 <= 1
 R378: C278 <= 0
 R379: C279 <= 0
 R380: C280 <= 0
 R381: C281 <= 0
 R382: C282 <= 1
 R383: C283 <= 0
 R384: C284 <= 0
 R385: C285 <= 1
 R386: C286 <= 1
 R387: C287 <= 1
 R388: C288 <= 0
 R389: C289 <= 0
 R390: C290 <= 0
 R391: C291 <= 0
 R392: C292 <= 1
 R393: C293 <= 0
 R394: C294 <= 0
 R395: C295 <= 1
 R396: C296 <= 1
 R397: C297 <= 1
 R398: C298 <= 0
 R399: C299 <= 0
 R400: C300 <= 0
 R401: C301 <= 0
 R402: C302 <= 1
 R403: C303 <= 0
 R404: C304 <= 0
 R405: C305 <= 1
 R406: C306 <= 1
 R407: C307 <= 1
 R408: C308 <= 0
 R409: C309 <= 0
 R410: C310 <= 0
 R411: C311 <= 0
 R412: C312 <= 1
 R413: C313 <= 0
 R414: C314 <= 0
 R415: C315 <= 1
 R416: C316 <= 1
 R417: C317 <= 1
 R418: C318 <= 0
 R419: C319 <= 0
 R420: C320 <= 0
 R421: C321 <= 0
 R422: C322 <= 1
 R423: C323 <= 0
 R424: C324 <= 0
 R425: C325 <= 1
 R426: C326 <= 1
 R427: C327 <= 1
 R428: C328 <= 0
 R429: C329 <= 0
 R430: C330 <= 0
 R431: C331 <= 0
 R432: C332 <= 1
 R433: C333 <= 0
 R434: C334 <= 0
 R435: C335 <= 1
 R436: C336 <= 1
 R437: C337 <= 1
 R438: C338 <= 0
 R439: C339 <= 0
 R440: C340 <= 0
 R441: C341 <= 0
 R442: C342 <= 1
 R443: C343 <= 0
 R444: C344 <= 0
 R445: C345 <= 1
 R446: C346 <= 1
 R447: C347 <= 1
 R448: C348 <= 0
 R449: C349 <= 0
 R450: C350 <= 0
 R451: C351 <= 0
 R452: C352 <= 1
 R453: C353 <= 0
 R454: C354 <= 0
 R455: C355 <= 1
 R456: C356 <= 1
 R457: C357 <= 1
 R458: C358 <= 0
 R459: C359 <= 0
 R460: C360 <= 0
 R461: C361 <= 0
 R462: C362 <= 1
 R463: C363 <= 0
 R464: C364 <= 0
 R465: C365 <= 1
 R466: C366 <= 1
 R467: C367 <= 1
 R468: C368 <= 0
 R469: C369 <= 0
 R470: C370 <= 0
 R471: C371 <= 0
 R472: C372 <= 1
 R473: C373 <= 0
 R474: C374 <= 0
 R475: C375 <= 1
 R476: C376 <= 1
 R477: C377 <= 1
 R478: C378 <= 0
 R479: C379 <= 0
 R480: C380 <= 0
 R481: C381 <= 0
 R482: C382 <= 1
 R483: C383 <= 0
 R484: C384 <= 0
 R485: C385 <= 1
 R486: C386 <= 1
 R487: C387 <= 1
 R488: C388 <= 0
 R489: C389 <= 0
 R490: C390 <= 0
 R491: C391 <= 0
 R492: C392 <= 1
 R493: C393 <= 0
 R494: C394 <= 0
 R495: C395 <= 1
 R496: C396 <= 1
 R497: C397 <= 1
 R498: C398 <= 0
 R499: C399 <= 0
 R500: C400 <= 0
 R501: C401 <= 0
 R502: C402 <= 1
 R503: C403 <= 0
 R504: C404 <= 0
 R505: C405 <= 1
 R506: C406 <= 1
 R507: C407 <= 1
 R508: C408 <= 0
 R509: C409 <= 0
 R510: C410 <= 0
 R511: C411 <= 0
 R512: C412 <= 1
 R513: C413 <= 0
 R514: C414 <= 0
 R515: C415 <= 1
 R516: C416 <= 1
 R517: C417 <= 1
 R518: C418 <= 0
 R519: C419 <= 0
 R520: C420 <= 0
 R521: C421 <= 0
 R522: C422 <= 1
 R523: C423 <= 0
 R524: C424 <= 0
 R525: C425 <= 1
 R526: C426 <= 1
 R527: C427 <= 1
 R528: C428 <= 0
 R529: C429 <= 0
 R530: C430 <= 0
 R531: C431 <= 0
 R532: C432 <= 1
 R533: C433 <= 0
 R534: C434 <= 0
 R535: C435 <= 1
 R536: C436 <= 1
 R537: C437 <= 1
 R538: C438 <= 0
 R539: C439 <= 0
 R540: C440 <= 0
 R541: C441 <= 0
 R542: C442 <= 1
 R543: C443 <= 0
 R544: C444 <= 0
 R545: C445 <= 1
 R546: C446 <= 1
 R547: C447 <= 1
 R548: C448 <= 0
 R549: C449 <= 0
 R550: C450 <= 0
 R551: C451 <= 0
 R552: C452 <= 1
 R553: C453 <= 0
 R554: C454 <= 0
 R555: C455 <= 1
 R556: C456 <= 1
 R557: C457 <= 1
 R558: C458 <= 0
 R559: C459 <= 0
 R560: C460 <= 0
 R561: C461 <= 0
 R562: C462 <= 1
 R563: C463 <= 0
 R564: C464 <= 0
 R565: C465 <= 1
 R566: C466 <= 1
 R567: C467 <= 1
 R568: C468 <= 0
 R569: C469 <= 0
 R570: C470 <= 0
 R571: C471 <= 0
 R572: C472 <= 1
 R573: C473 <= 0
 R574: C474 <= 0
 R575: C475 <= 1
 R576: C476 <= 1
 R577: C477 <= 1
 R578: C478 <= 0
 R579: C479 <= 0
 R580: C480 <= 0
 R581: C481 <= 0
 R582: C482 <= 1
 R583: C483 <= 0
 R584: C484 <= 0
 R585: C485 <= 1
 R586: C486 <= 1
 R587: C487 <= 1
 R588: C488 <= 0
 R589: C489 <= 0
 R590: C490 <= 0
 R591: C491 <= 0
 R592: C492 <= 1
 R593: C493 <= 0
 R594: C494 <= 0
 R595: C495 <= 1
 R596: C496 <= 1
 R597: C497 <= 1
 R598: C498 <= 0
 R599: C499 <= 0
 R600: C500 <= 0
 R601: C501 <= 0
 R602: C502 <= 1
 R603: C503 <= 0
 R604: C504 <= 0
 R605: C505 <= 1
 R606: C506 <= 1
 R607: C507 <= 1
 R608: C508 <= 0
 R609: C509 <= 0
 R610: C510 <= 0
 R611: C511 <= 0
 R612: C512 <= 1
 R613: C513 <= 0
 R614: C514 <= 0
 R615: C515 <= 1
 R616: C516 <= 1
 R617: C517 <= 1
 R618: C518 <= 0
 R619: C519 <= 0
 R620: C520 <= 0
 R621: C521 <= 0
 R622: C522 <= 1
 R623: C523 <= 0
 R624: C524 <= 0
 R625: C525 <= 1
 R626: C526 <= 1
 R627: C527 <= 1
 R628: C528 <= 0
 R629: C529 <= 0
 R630: C530 <= 0
 R631: C531 <= 0
 R632: C532 <= 1
 R633: C533 <= 0
 R634: C534 <= 0
 R635: C535 <= 1
 R636: C536 <= 1
 R637: C537 <= 1
 R638: C538 <= 0
 R639: C539 <= 0
 R640: C540 <= 0
 R641: C541 <= 0
 R642: C542 <= 1
 R643: C543 <= 0
 R644: C544 <= 0
 R645: C545 <= 1
 R646: C546 <= 1
 R647: C547 <= 1
 R648: C548 <= 0
 R649: C549 <= 0
 R650: C550 <= 0
 R651: C551 <= 0
 R652: C552 <= 1
 R653: C553 <= 0
 R654: C554 <= 0
 R655: C555 <= 1
 R656: C556 <= 1
 R657: C557 <= 1
 R658: C558 <= 0
 R659: C559 <= 0
 R660: C560 <= 0
 R661: C561 <= 0
 R662: C562 <= 1
 R663: C563 <= 0
 R664: C564 <= 0
 R665: C565 <= 1
 R666: C566 <= 1
 R667: C567 <= 1
 R668: C568 <= 0
 R669: C569 <= 0
 R670: C570 <= 0
 R671: C571 <= 0
 R672: C572 <= 1
 R673: C573 <= 0
 R674: C574 <= 0
 R675: C575 <= 1
 R676: C576 <= 1
 R677: C577 <= 1
 R678: C578 <= 0
 R679: C579 <= 0
 R680: C580 <= 0
 R681: C581 <= 0
 R682: C582 <= 1
 R683: C583 <= 0
 R684: C584 <= 0
 R685: C585 <= 1
 R686: C586 <= 1
 R687: C587 <= 1
 R688: C588 <= 0
 R689: C589 <= 0
 R690: C590 <= 0
 R691: C591 <= 0
 R692: C592 <= 1
 R693: C593 <= 0
 R694: C594 <= 0
 R695: C595 <= 1
 R696: C596 <= 1
 R697: C597 <= 1
 R698: C598 <= 0
 R699: C599 <= 0
 R700: C600 <= 0
 R701: C601 <= 0
 R702: C602 <= 1
 R703: C603 <= 0
 R704: C604 <= 0
 R705: C605 <= 1
 R706: C606 <= 1
 R707: C607 <= 1
 R708: C608 <= 0
 R709: C609 <= 0
 R710: C610 <= 0
 R711: C611 <= 0
 R712: C612 <= 1
 R713: C613 <= 0
 R714: C614 <= 0
 R715: C615 <= 1
 R716: C616 <= 1
 R717: C617 <= 1
 R718: C618 <= 0
 R719: C619 <= 0
 R720: C620 <= 0
 R721: C621 <= 0
 R722: C622 <= 1
 R723: C623 <= 0
 R724: C624 <= 0
 R725: C625 <= 1
 R726: C626 <= 1
 R727: C627 <= 1
 R728: C628 <= 0
 R729: C629 <= 0
 R730: C630 <= 0
 R731: C631 <= 0
 R732: C632 <= 1
 R733: C633 <= 0
 R734: C634 <= 0
 R735: C635 <= 1
 R736: C636 <= 1
 R737: C637 <= 1
 R738: C638 <= 0
 R739: C639 <= 0
 R740: C640 <= 0
 R741: C641 <= 0
 R742: C642 <= 1
 R743: C643 <= 0
 R744: C644 <= 0
 R745: C645 <= 1
 R746: C646 <= 1
 R747: C647 <= 1
 R748: C648 <= 0
 R749: C649 <= 0
 R750: C650 <= 0
 R751: C651 <= 0
 R752: C652 <= 1
 R753: C653 <= 0
 R754: C654 <= 0
 R755: C655 <= 1
 R756: C656 <= 1
 R757: C657 <= 1
 R758: C658 <= 0
 R759: C659 <= 0
 R760: C660 <= 0
 R761: C661 <= 0
 R762: C662 <= 1
 R763: C663 <= 0
 R764: C664 <= 0
 R765: C665 <= 1
 R766: C666 <= 1
 R767: C667 <= 1
 R768: C668 <= 0
 R769: C669 <= 0
 R770: C670 <= 0
 R771: C671 <= 0
 R772: C672 <= 1
 R773: C673 <= 0
 R774: C674 <= 0
 R775: C675 <= 1
 R776: C676 <= 1
 R777: C677 <= 1
 R778: C678 <= 0
 R779: C679 <= 0
 R780: C680 <= 0
 R781: C681 <= 0
 R782: C682 <= 1
 R783: C683 <= 0
 R784: C684 <= 0
 R785: C685 <= 1
 R786: C686 <= 1
 R787: C687 <= 1
 R788: C688 <= 0
 R789: C689 <= 0
 R790: C690 <= 0
 R791: C691 <= 0
 R792: C692 <= 1
 R793: C693 <= 0
 R794: C694 <= 0
 R795: C695 <= 1
 R796: C696 <= 1
 R797: C697 <= 1
 R798: C698 <= 0
 R799: C699 <= 0
 R800: C700 <= 0
 R801: C701 <= 0
 R802: C702 <= 1
 R803: C703 <= 0
 R804: C704 <= 0
 R805: C705 <= 1
 R806: C706 <= 1
 R807: C707 <= 1
 R808: C708 <= 0
 R809: C709 <= 0
 R810: C710 <= 0
 R811: C711 <= 0
 R812: C712 <= 1
 R813: C713 <= 0
 R814: C714 <= 0
 R815: C715 <= 1
 R816: C716 <= 1
 R817: C717 <= 1
 R818: C718 <= 0
 R819: C719 <= 0
 R820: C720 <= 0
 R821: C721 <= 0
 R822: C722 <= 1
 R823: C723 <= 0
 R824: C724 <= 0
 R825: C725 <= 1
 R826: C726 <= 1
 R827: C727 <= 1
 R828: C728 <= 0
 R829: C729 <= 0
 R830: C730 <= 0
 R831: C731 <= 0
 R832: C732 <= 1
 R833: C733 <= 0
 R834: C734 <= 0
 R835: C735 <= 1
 R836: C736 <= 1
 R837: C737 <= 1
 R838: C738 <= 0
 R839: C739 <= 0
 R840: C740 <= 0
 R841: C741 <= 0
 R842: C742 <= 1
 R843: C743 <= 0
 R844: C744 <= 0
 R845: C745 <= 1
 R846: C746 <= 1
 R847: C747 <= 1
 R848: C748 <= 0
 R849: C749 <= 0
 R850: C750 <= 0
 R851: C751 <= 0
 R852: C752 <= 1
 R853: C753 <= 0
 R854: C754 <= 0
 R855: C755 <= 1
 R856: C756 <= 1
 R857: C757 <= 1
 R858: C758 <= 0
 R859: C759 <= 0
 R860: C760 <= 0
 R861: C761 <= 0
 R862: C762 <= 1
 R863: C763 <= 0
 R864: C764 <= 0
 R865: C765 <= 1
 R866: C766 <= 1
 R867: C767 <= 1
 R868: C768 <= 0
 R869: C769 <= 0
 R870: C770 <= 0
 R871: C771 <= 0
 R872: C772 <= 1
 R873: C773 <= 0
 R874: C774 <= 0
 R875: C775 <= 1
 R876: C776 <= 1
 R877: C777 <= 1
 R878: C778 <= 0
 R879: C779 <= 0
 R880: C780 <= 0
 R881: C781 <= 0
 R882: C782 <= 1
 R883: C783 <= 0
 R884: C784 <= 0
 R885: C785 <= 1
 R886: C786 <= 1
 R887: C787 <= 1
 R888: C788 <= 0
 R889: C789 <= 0
 R890: C790 <= 0
 R891: C791 <= 0
 R892: C792 <= 1
 R893: C793 <= 0
 R894: C794 <= 0
 R895: C795 <= 1
 R896: C796 <= 1
 R897: C797 <= 1
 R898: C798 <= 0
 R899: C799 <= 0
 R900: C800 <= 0
 R901: C801 <= 0
 R902: C802 <= 1
 R903: C803 <= 0
 R904: C804 <= 0
 R905: C805 <= 1
 R906: C806 <= 1
 R907: C807 <= 1
 R908: C808 <= 0
 R909: C809 <= 0
 R910: C810 <= 0
 R911: C811 <= 0
 R912: C812 <= 1
 R913: C813 <= 0
 R914: C814 <= 0
 R915: C815 <= 1
 R916: C816 <= 1
 R917: C817 <= 1
 R918: C818 <= 0
 R919: C819 <= 0
 R920: C820 <= 0
 R921: C821 <= 0
 R922: C822 <= 1
 R923: C823 <= 0
 R924: C824 <= 0
 R925: C825 <= 1
 R926: C826 <= 1
 R927: C827 <= 1
 R928: C828 <= 0
 R929: C829 <= 0
 R930: C830 <= 0
 R931: C831 <= 0
 R932: C832 <= 1
 R933: C833 <= 0
 R934: C834 <= 0
 R935: C835 <= 1
 R936: C836 <= 1
 R937: C837 <= 1
 R938: C838 <= 0
 R939: C839 <= 0
 R940: C840 <= 0
 R941: C841 <= 0
 R942: C842 <= 1
 R943: C843 <= 0
 R944: C844 <= 0
 R945: C845 <= 1
 R946: C846 <= 1
 R947: C847 <= 1
 R948: C848 <= 0
 R949: C849 <= 0
 R950: C850 <= 0
 R951: C851 <= 0
 R952: C852 <= 1
 R953: C853 <= 0
 R954: C854 <= 0
 R955: C855 <= 1
 R956: C856 <= 1
 R957: C857 <= 1
 R958: C858 <= 0
 R959: C859 <= 0
 R960: C860 <= 0
 R961: C861 <= 0
 R962: C862 <= 1
 R963: C863 <= 0
 R964: C864 <= 0
 R965: C865 <= 1
 R966: C866 <= 1
 R967: C867 <= 1
 R968: C868 <= 0
 R969: C869 <= 0
 R970: C870 <= 0
 R971: C871 <= 0
 R972: C872 <= 1
 R973: C873 <= 0
 R974: C874 <= 0
 R975: C875 <= 1
 R976: C876 <= 1
 R977: C877 <= 1
 R978: C878 <= 0
 R979: C879 <= 0
 R980: C880 <= 0
 R981: C881 <= 0
 R982: C882 <= 1
 R983: C883 <= 0
 R984: C884 <= 0
 R985: C885 <= 1
 R986: C886 <= 1
 R987: C887 <= 1
 R988: C888 <= 0
 R989: C889 <= 0
 R990: C890 <= 0
 R991: C891 <= 0
 R992: C892 <= 1
 R993: C893 <= 0
 R994: C894 <= 0
 R995: C895 <= 1
 R996: C896 <= 1
 R997: C897 <= 1
 R998: C898 <= 0
 R999: C899 <= 0
 R1000: C900 <= 0
 R1001: C901 <= 0
 R1002: C902 <= 1
 R1003: C903 <= 0
 R1004: C904 <= 0
 R1005: C905 <= 1
 R1006: C906 <= 1
 R1007: C907 <= 1
 R1008: C908 <= 0
 R1009: C909 <= 0
 R1010: C910 <= 0
 R1011: C911 <= 0
 R1012: C912 <= 1
 R1013: C913 <= 0
 R1014: C914 <= 0
 R1015: C915 <= 1
 R1016: C916 <= 1
 R1017: C917 <= 1
 R1018: C918 <= 0
 R1019: C919 <= 0
 R1020: C920 <= 0
 R1021: C921 <= 0
 R1022: C922 <= 1
 R1023: C923 <= 0
 R1024: C924 <= 0
 R1025: C925 <= 1
 R1026: C926 <= 1
 R1027: C927 <= 1
 R1028: C928 <= 0
 R1029: C929 <= 0
 R1030: C930 <= 0
 R1031: C931 <= 0
 R1032: C932 <= 1
 R1033: C933 <= 0
 R1034: C934 <= 0
 R1035: C935 <= 1
 R1036: C936 <= 1
 R1037: C937 <= 1
 R1038: C938 <= 0
 R1039: C939 <= 0
 R1040: C940 <= 0
 R1041: C941 <= 0
 R1042: C942 <= 1
 R1043: C943 <= 0
 R1044: C944 <= 0
 R1045: C945 <= 1
 R1046: C946 <= 1
 R1047: C947 <= 1
 R1048: C948 <= 0
 R1049: C949 <= 0
 R1050: C950 <= 0
 R1051: C951 <= 0
 R1052: C952 <= 1
 R1053: C953 <= 0
 R1054: C954 <= 0
 R1055: C955 <= 1
 R1056: C956 <= 1
 R1057: C957 <= 1
 R1058: C958 <= 0
 R1059: C959 <= 0
 R1060: C960 <= 0
 R1061: C961 <= 0
 R1062: C962 <= 1
 R1063: C963 <= 0
 R1064: C964 <= 0
 R1065: C965 <= 1
 R1066: C966 <= 1
 R1067: C967 <= 1
 R1068: C968 <= 0
 R1069: C969 <= 0
 R1070: C970 <= 0
 R1071: C971 <= 0
 R1072: C972 <= 1
 R1073: C973 <= 0
 R1074: C974 <= 0
 R1075: C975 <= 1
 R1076: C976 <= 1
 R1077: C977 <= 1
 R1078: C978 <= 0
 R1079: C979 <= 0
 R1080: C980 <= 0
 R1081: C981 <= 0
 R1082: C982 <= 1
 R1083: C983 <= 0
 R1084: C984 <= 0
 R1085: C985 <= 1
 R1086: C986 <= 1
 R1087: C987 <= 1
 R1088: C988 <= 0
 R1089: C989 <= 0
 R1090: C990 <= 0
 R1091: C991 <= 0
 R1092: C992 <= 1
 R1093: C993 <= 0
 R1094: C994 <= 0
 R1095: C995 <= 1
 R1096: C996 <= 1
 R1097: C997 <= 1
 R1098: C998 <= 0
 R1099: C999 <= 0
Bounds
 Constant = 1
End
